DATASET = "thpack1";
INSTANCE = "077";

WIDTH = 233;
HEIGHT = 220;
LENGTH = 587;

NO_OF_SHAPES = 3;
size = [|
  73,73,36 |
  87,49,26 |
  68,53,44 |
|];

verticality = [|
  0,0,1 |
  0,1,1 |
  1,1,1 |
|];

box_count = [
  74,
  67,
  53,
];
